
  20    0


   0  13 2 4 5 6 7 8 9 14 15 16 17 18 19 
   4   1 3 
   6   3 12 11 10 
  10   2 13 10 
   8   2 11 10 
   9   1 10 
   2   1 10 
   8   1 10 
   4   1 10 
   8   1 20
   3   1 20
  10   1 20
   3   1 20
   4   1 20
   6   1 20
   2   1 20
   2   1 20
   7   1 20
   8   1 20
   0   0 
